letting np_cars_plus be 110
letting np_classes be 35
letting np_options be 176
letting quantity_range_min be 4
letting quantity_range_delta be 18
letting maxcars_range_min be 6
letting maxcars_range_delta be 5
letting blksize_delta_range_min be 1
letting blksize_delta_range_delta be 2
letting usage_card_min be 203
letting usage_card_delta be 73